numActors = 8;
numScenes = 10;
actorPay = [10,4,5,5,5,40,4,20];
sceneDuration = [2,1,1,1,1,3,1,1,1,2];
actorInScene = array2d(Actors,Scenes,[1,1,1,1,0,1,0,1,0,1,1,1,1,0,0,0,1,1,0,1,0,1,1,0,1,0,1,1,0,0,0,0,0,0,0,0,0,0,0,1,0,1,0,0,0,0,1,1,0,0,0,0,0,0,0,0,0,0,0,0,0,0,0,0,1,0,1,1,0,0,0,0,0,0,0,1,1,1,1,0]);
